proyfinal/src/viki/013/andrea/andrea-localstore/experimentInOfficeAgust.take6/worker_6/5d284cca-4093-4c5b-a86e-ad04ff616404.als.cnf.out
Reading from standard input... Use '--help' for help.
============================[ Problem Statistics ]=============================
|                                                                             |
|  Number of variables:         87638                                         |
|  Number of clauses:          161767                                         |
|  Parse time:                   0.04 s                                       |
|                                                                             |
============================[ Search Statistics ]==============================
| Conflicts |          ORIGINAL         |          LEARNT          | Progress |
|           |    Vars  Clauses Literals |    Limit  Clauses Lit/Cl |          |
===============================================================================
|       100 |   62268   104812   261877 |    38431      100      8 | 28.949 % |
|       250 |   62268   104812   261877 |    42274      250     37 | 28.949 % |
|       475 |   62268   104812   261877 |    46501      475     62 | 28.949 % |
|       812 |   62268   104812   261877 |    51151      812     66 | 28.949 % |
|      1318 |   62268   104812   261877 |    56266     1318     68 | 28.949 % |
|      2077 |   62267   104768   261787 |    61893     2074     65 | 28.950 % |
|      3216 |   62237   104646   261484 |    68082     2715     73 | 28.984 % |
|      4924 |   62237   104646   261484 |    74891     4423     90 | 28.984 % |
|      7486 |   47478    63316   159846 |    82380     6449     85 | 45.825 % |
===============================================================================
restarts              : 42
conflicts             : 9649           (6487 /sec)
decisions             : 31982          (0.00 % random) (21502 /sec)
propagations          : 16013518       (10766237 /sec)
conflict literals     : 690391         (50.56 % deleted)
Memory used           : 31.75 MB
CPU time              : 1.48738 s

UNSATISFIABLE
